10
2147483647 1 6 71 12 30 16 49 27 35 
1 2147483647 79 48 87 90 84 22 43 51 
6 79 2147483647 2 95 48 41 71 95 81 
71 48 2 2147483647 67 34 4 49 13 10 
12 87 95 67 2147483647 68 87 65 94 71 
30 90 48 34 68 2147483647 60 12 96 58 
16 84 41 4 87 60 2147483647 37 3 44 
49 22 71 49 65 12 37 2147483647 6 81 
27 43 95 13 94 96 3 6 2147483647 81 
35 51 81 10 71 58 44 81 81 2147483647 
